solution/p_3_2.txt_600.col.log
CPXPARAM_TimeLimit                               600
CPXPARAM_WorkMem                                 4096
CPXPARAM_Threads                                 1
Found incumbent of value 0,000000 after 0,00 sec. (0,00 ticks)
Tried aggregator 1 time.
MIP Presolve eliminated 3 rows and 26 columns.
MIP Presolve modified 20 coefficients.
Reduced MIP has 6 rows, 9 columns, and 16 nonzeros.
Reduced MIP has 9 binaries, 0 generals, 0 SOSs, and 0 indicators.
Presolve time = 0,00 sec. (0,09 ticks)
Probing time = 0,00 sec. (0,00 ticks)
Tried aggregator 2 times.
MIP Presolve eliminated 4 rows and 7 columns.
MIP Presolve modified 2 coefficients.
Aggregator did 2 substitutions.
All rows and columns eliminated.
Presolve time = 0,00 sec. (0,02 ticks)

Root node processing (before b&c):
  Real time             =    0,00 sec. (1,09 ticks)
Sequential b&c:
  Real time             =    0,00 sec. (0,00 ticks)
                          ------------
Total (root+branch&cut) =    0,00 sec. (1,09 ticks)
